1	2	2
2	3	1
2	4	3
2	19	5
3	5	1
3	6	1
4	21	1
4	23	4
5	7	2
6	8	2
6	14	1
6	10	5
8	17	1
9	24	2
9	25	3
10	11	2
10	12	6
11	13	2
11	15	7
12	15	2
13	16	2
15	18	2
15	26	6
16	18	3
17	25	1
19	20	2
20	22	2
21	22	2
22	23	1
23	24	1
25	26	3
